(set-logic QF_LRA)
(declare-fun X0 () Real )
(declare-fun Y0 () Real )
(declare-fun X1 () Real )
(declare-fun Y1 () Real )
(declare-fun X2 () Real )
(declare-fun Y2 () Real )
(declare-fun X3 () Real )
(declare-fun Y3 () Real )
(declare-fun X4 () Real )
(declare-fun Y4 () Real )
(declare-fun X5 () Real )
(declare-fun Y5 () Real )
(declare-fun Z () Real )
(assert ( and  
( or ( <= ( + X0 80 ) X1 )  ( <= ( + X1 70 ) X0 )  ( <= ( + Y0 50 ) Y1 )  ( <= ( + Y1 26 ) Y0 )  )
( or ( <= ( + X0 80 ) X2 )  ( <= ( + X2 27 ) X0 )  ( <= ( + Y0 50 ) Y2 )  ( <= ( + Y2 48 ) Y0 )  )
( or ( <= ( + X0 80 ) X3 )  ( <= ( + X3 19 ) X0 )  ( <= ( + Y0 50 ) Y3 )  ( <= ( + Y3 19 ) Y0 )  )
( or ( <= ( + X0 80 ) X4 )  ( <= ( + X4 55 ) X0 )  ( <= ( + Y0 50 ) Y4 )  ( <= ( + Y4 19 ) Y0 )  )
( or ( <= ( + X0 80 ) X5 )  ( <= ( + X5 32 ) X0 )  ( <= ( + Y0 50 ) Y5 )  ( <= ( + Y5 51 ) Y0 )  )
( or ( <= ( + X1 70 ) X2 )  ( <= ( + X2 27 ) X1 )  ( <= ( + Y1 26 ) Y2 )  ( <= ( + Y2 48 ) Y1 )  )
( or ( <= ( + X1 70 ) X3 )  ( <= ( + X3 19 ) X1 )  ( <= ( + Y1 26 ) Y3 )  ( <= ( + Y3 19 ) Y1 )  )
( or ( <= ( + X1 70 ) X4 )  ( <= ( + X4 55 ) X1 )  ( <= ( + Y1 26 ) Y4 )  ( <= ( + Y4 19 ) Y1 )  )
( or ( <= ( + X1 70 ) X5 )  ( <= ( + X5 32 ) X1 )  ( <= ( + Y1 26 ) Y5 )  ( <= ( + Y5 51 ) Y1 )  )
( or ( <= ( + X2 27 ) X3 )  ( <= ( + X3 19 ) X2 )  ( <= ( + Y2 48 ) Y3 )  ( <= ( + Y3 19 ) Y2 )  )
( or ( <= ( + X2 27 ) X4 )  ( <= ( + X4 55 ) X2 )  ( <= ( + Y2 48 ) Y4 )  ( <= ( + Y4 19 ) Y2 )  )
( or ( <= ( + X2 27 ) X5 )  ( <= ( + X5 32 ) X2 )  ( <= ( + Y2 48 ) Y5 )  ( <= ( + Y5 51 ) Y2 )  )
( or ( <= ( + X3 19 ) X4 )  ( <= ( + X4 55 ) X3 )  ( <= ( + Y3 19 ) Y4 )  ( <= ( + Y4 19 ) Y3 )  )
( or ( <= ( + X3 19 ) X5 )  ( <= ( + X5 32 ) X3 )  ( <= ( + Y3 19 ) Y5 )  ( <= ( + Y5 51 ) Y3 )  )
( or ( <= ( + X4 55 ) X5 )  ( <= ( + X5 32 ) X4 )  ( <= ( + Y4 19 ) Y5 )  ( <= ( + Y5 51 ) Y4 )  )
( >= X0 0)
( <= ( + X0 80) Z)
( >= Y0 0)
( <= ( + Y0 50 ) 122)
( >= X1 0)
( <= ( + X1 70) Z)
( >= Y1 0)
( <= ( + Y1 26 ) 122)
( >= X2 0)
( <= ( + X2 27) Z)
( >= Y2 0)
( <= ( + Y2 48 ) 122)
( >= X3 0)
( <= ( + X3 19) Z)
( >= Y3 0)
( <= ( + Y3 19 ) 122)
( >= X4 0)
( <= ( + X4 55) Z)
( >= Y4 0)
( <= ( + Y4 19 ) 122)
( >= X5 0)
( <= ( + X5 32) Z)
( >= Y5 0)
( <= ( + Y5 51 ) 122)
) )
(minimize Z)
(check-sat)
